data/solutions/recovery/degenerate/intermediate/binding/degenerate_intermediate_instance38/30.sol
Elapsed time: 0.6
Upper bound: 300540.0
Planning weighted value: 14087805735.0
C[0]=300540.0
C[1]=300488.0
C[2]=300075.0
C[3]=295909.0
C[4]=295463.0
C[5]=294869.0
C[6]=294789.0
C[7]=290134.0
C[8]=288388.0
C[9]=284791.0
C[10]=281782.0
C[11]=279444.0
C[12]=277746.0
C[13]=0.0
C[14]=0.0
C[15]=0.0
y[0]=9
y[1]=10
y[2]=4
y[3]=1
y[4]=8
y[5]=12
y[6]=2
y[7]=9
y[8]=4
y[9]=9
y[10]=7
y[11]=12
y[12]=0
y[13]=8
y[14]=9
y[15]=0
y[16]=8
y[17]=3
y[18]=6
y[19]=6
y[20]=11
y[21]=10
y[22]=7
y[23]=2
y[24]=7
y[25]=10
y[26]=1
y[27]=5
y[28]=4
y[29]=9
y[30]=12
y[31]=6
y[32]=0
y[33]=3
y[34]=3
y[35]=0
y[36]=11
y[37]=1
y[38]=12
y[39]=0
y[40]=11
y[41]=4
y[42]=2
y[43]=7
y[44]=8
y[45]=10
y[46]=11
y[47]=10
y[48]=1
y[49]=1
y[50]=3
y[51]=2
y[52]=4
y[53]=3
y[54]=1
y[55]=5
y[56]=11
y[57]=2
y[58]=5
y[59]=7
y[60]=8
y[61]=6
y[62]=8
y[63]=5
y[64]=6
y[65]=3
